NAME : kroD100Preorder.7829.tour
COMMENT : Length = 7829
COMMENT : Found by LKH [Keld Helsgaun] Fri Apr 24 13:54:20 2020
TYPE : TOUR
DIMENSION : 100
TOUR_SECTION
1
50
34
81
38
66
52
46
8
23
42
89
11
90
17
94
32
97
98
49
70
22
58
29
36
67
75
7
74
61
76
80
72
57
31
78
99
45
33
68
14
65
86
96
16
63
54
91
77
43
64
85
59
40
3
83
6
18
82
25
20
9
10
21
47
12
28
56
95
26
87
55
92
48
2
100
30
35
51
19
37
62
5
53
60
44
93
4
71
39
73
15
69
84
41
24
27
88
79
13
-1
EOF
